num_personas = 15;
num_opiniones = 5;
distribucion_inicial = [2,5,3,1,4];
valores_extremismo = [0.812,0.156,0.734,0.691,0.423];
costos_extra = [15.234,7.891,12.456,14.789,8.567];
matriz_costos = [
  [0,2.567,2.890,1.234,5.678],
  [3.456,0,1.567,2.890,4.123],
  [2.789,3.234,0,4.567,1.890],
  [1.567,4.890,3.678,0,3.456],
  [6.123,2.456,4.234,5.123,0]
];
costo_maximo = 89.34;
movimientos_maximos = 35;